/* Objective function */
min: 3.00*x12 + 6.08*x13 + 8.06*x14 + 4.12*x15 + 3.00*x16 + 7.21*x18 + 7.00*x19 + 7.28*x110 + 8.60*x111 + 10.63*x112 + 5.00*x113 +
     3.16*x23 + 5.10*x24 + 1.41*x25 + 4.24*x26 + 6.08*x28 + 7.62*x29 + 7.07*x210 + 7.28*x211 + 8.60*x212 + 3.16*x213 +
     2.00*x34 + 2.83*x35 + 7.21*x36 + 7.28*x38 + 10.00*x39 + 8.94*x310 + 8.06*x311 + 8.25*x312 + 4.47*x313 +
     4.47*x45 + 8.94*x46 + 8.06*x48 + 11.31*x49 + 10.00*x410 + 8.54*x411 + 8.00*x412 + 5.66*x413 +
     4.47*x56 + 5.00*x58 + 7.21*x59 + 6.32*x510 + 6.08*x511 + 7.21*x512 + 2.00*x513 +
     5.00*x68 + 4.00*x69 + 4.47*x610 + 6.40*x611 + 8.94*x612 + 4.00*x613 +
     4.12*x89 + 2.24*x810 + 1.41*x811 + 4.12*x812 + 3.00*x813 +
     2.00*x910 + 5.00*x911 + 8.00*x912 + 5.66*x913 +
     3.00*x1011 + 6.00*x1012 + 4.47*x1013 +
     3.00*x1112 + 4.12*x1113 +
     5.66*x1213;
     
     
/*Restrições*/
vertice1: x12 + x13 + x14 + x15 + x16 + x18 + x19 + x110 + x111 + x112 + x113 = 1;
vertice2: x12 + x23 + x24 + x25 + x26 + x28 + x29 + x210 + x211 + x212 + x213 = 1;
vertice3 : x13 + x23 + x34 + x35 + x36 + x38 + x39 + x310 + x311 + x312 + x313 = 1;
vertice4 : x14 + x24 + x34 + x45 + x46 + x48 + x49 + x410 + x411 + x412 +x413 = 1;
vertice5 : x15 + x25 + x35 + x45 + x56 + x58 + x59 + x510 + x511 + x512 + x513 = 1;
vertice6 : x16 + x26 + x36 + x46 + x56 + x68 + x69 + x610 + x611 + x612 + x613 = 1;
vertice8 : x18 + x28 + x38 + x48 + x58 + x68 + x89 + x810 + x811 + x812 + x813 = 1;
vertice9 : x19 + x29 + x39 + x49 + x59 + x69 + x89 + x910 + x911 + x912 + x913 = 1;
vertice10 : x110 + x210 + x310 + x410 + x510 + x610 + x810 + x910 + x1011 + x1012 + x1013 = 1;
vertice11 : x111 + x211 + x311 + x411 + x511 + x611 + x811 + x911 + x1011 + x1112 + x1113 = 1;
vertice12 : x112 + x212 + x312 + x412 + x512 + x612 + x812 + x912 + x1012 + x1112 + x1213 = 1;
vertice13 : x113 + x213 + x313 + x413 + x513 + x613 + x813 + x913 + x1013 + x1113 + x1213 = 1;


/* Restrição de não negatividade e de integralidade*/
Bin
   x12, x13, x14, x15, x16, x18, x19, x110, x111, x112, x113,
   x23, x24, x25, x26, x28, x29, x210, x211, x212, x213,
   x34, x35, x36, x38, x39, x310, x311, x312, x313,
   x45, x46, x48, x49, x410, x411, x412, x413,
   x56, x58, x59, x510, x511, x512, x513,
   x68, x69, x610, x611, x612, x613,
   x89, x810, x811, x812, x813,
   x910, x911, x912, x913,
   x1011, x1012, x1013,
   x1112, x1113,
   x1213;

